(set-logic QF_S)
(declare-fun var0 () String)
(declare-fun var1 () String)
(declare-fun var2 () String)
(declare-fun var3 () String)
(declare-fun var4 () String)
(declare-fun var5 () String)
(declare-fun var6 () String)
(declare-fun var7 () String)
(declare-fun var8 () String)
(declare-fun var9 () String)
(declare-fun var10 () String)
(declare-fun var11 () String)
(declare-fun var12 () String)
(declare-fun var13 () String)
(declare-fun var14 () String)
(declare-fun var15 () String)
(declare-fun var16 () String)
(declare-fun var17 () String)
(declare-fun var18 () String)
(declare-fun var19 () String)
(declare-fun var20 () String)
(declare-fun var21 () String)
(declare-fun var22 () String)
(declare-fun var23 () String)
(declare-fun var24 () String)
(declare-fun var25 () String)
(declare-fun var26 () String)
(declare-fun var27 () String)
(declare-fun var28 () String)
(declare-fun var29 () String)
(declare-fun var30 () String)
(declare-fun var31 () String)
(declare-fun var32 () String)
(declare-fun var33 () String)
(declare-fun var34 () String)
(declare-fun var35 () String)
(declare-fun var36 () String)
(declare-fun var37 () String)
(declare-fun var38 () String)
(declare-fun var39 () String)
(declare-fun var40 () String)
(declare-fun var41 () String)
(declare-fun var42 () String)
(declare-fun var43 () String)
(declare-fun var44 () String)
(declare-fun var45 () String)
(declare-fun var46 () String)
(declare-fun var47 () String)
(declare-fun var48 () String)
(declare-fun var49 () String)
(declare-fun var50 () String)
(declare-fun var51 () String)
(declare-fun var52 () String)
(declare-fun var53 () String)
(declare-fun var54 () String)
(declare-fun var55 () String)
(declare-fun var56 () String)
(declare-fun var57 () String)
(declare-fun var58 () String)
(declare-fun var59 () String)
(declare-fun var60 () String)
(assert (= var0 (str.++ var1 var2)))
(assert (= var2 (str.++ var3 var4)))
(assert (= var4 (str.++ var5 var6)))
(assert (= var6 (str.++ var7 var8)))
(assert (= var8 (str.++ var9 var10)))
(assert (= var10 (str.++ var11 var12)))
(assert (= var12 (str.++ var13 var14)))
(assert (= var14 (str.++ var15 var16)))
(assert (= var16 (str.++ var17 var18)))
(assert (= var18 (str.++ var19 var20)))
(assert (= var20 (str.++ var21 var22)))
(assert (= var22 (str.++ var23 var24)))
(assert (= var24 (str.++ var25 var26)))
(assert (= var26 (str.++ var27 var28)))
(assert (= var28 (str.++ var29 var30)))
(assert (= var30 (str.++ var31 var32)))
(assert (= var32 (str.++ var33 var34)))
(assert (= var34 (str.++ var35 var36)))
(assert (= var36 (str.++ var37 var38)))
(assert (= var38 (str.++ var39 var40)))
(assert (= var40 (str.++ var41 var42)))
(assert (= var42 (str.++ var43 var44)))
(assert (= var44 (str.++ var45 var46)))
(assert (= var46 (str.++ var47 var48)))
(assert (= var48 (str.++ var49 var50)))
(assert (= var50 (str.++ var51 var52)))
(assert (= var52 (str.++ var53 var54)))
(assert (= var54 (str.++ var55 var56)))
(assert (= var56 (str.++ var57 var58)))
(assert (= var58 (str.++ var59 var60)))
(assert (= var0 "solution"))
(assert (= "m" (str.at var47 402)))
(assert (= "n" (str.at var5 823)))
(assert (= "r" (str.at var8 959)))
(assert (= "i" (str.at var8 998)))
(assert (= "." (str.at var44 18)))
(assert (= ";" (str.at var39 628)))
(assert (= "k" (str.at var28 117)))
(assert (= "+" (str.at var49 148)))
(assert (= "v" (str.at var53 613)))
(assert (= "K" (str.at var54 46)))
(assert (= "!" (str.at var60 441)))
(assert (= "G" (str.at var42 986)))
(assert (= "w" (str.at var52 94)))
(assert (= ";" (str.at var0 543)))
(assert (= "," (str.at var48 57)))
(assert (= ";" (str.at var6 251)))
(assert (= "[" (str.at var6 724)))
(assert (= "I" (str.at var27 454)))
(assert (= "p" (str.at var22 824)))
(assert (= "G" (str.at var58 344)))
(assert (= "u" (str.at var33 715)))
(assert (= "#" (str.at var36 136)))
(assert (= "i" (str.at var49 355)))
(assert (= "@" (str.at var39 264)))
(assert (= "g" (str.at var8 237)))
(assert (= "S" (str.at var10 855)))
(assert (= "K" (str.at var14 603)))
(assert (= "8" (str.at var46 940)))
(assert (= "S" (str.at var40 135)))
(assert (= "@" (str.at var35 722)))
(assert (= "]" (str.at var6 410)))
(assert (= "J" (str.at var49 903)))
(assert (= "P" (str.at var54 217)))
(assert (= "]" (str.at var20 883)))
(assert (= "?" (str.at var39 552)))
(assert (= "p" (str.at var31 363)))
(assert (= "F" (str.at var7 473)))
(assert (= "9" (str.at var21 494)))
(assert (= "$" (str.at var24 161)))
(assert (= "+" (str.at var54 598)))
(assert (= "$" (str.at var48 467)))
(assert (= "e" (str.at var38 641)))
(assert (= "*" (str.at var59 706)))
(assert (= "A" (str.at var57 623)))
(assert (= "-" (str.at var41 383)))
(assert (= "C" (str.at var51 927)))
(assert (= "K" (str.at var52 417)))
(assert (= "B" (str.at var50 887)))
(assert (= "w" (str.at var38 735)))
(assert (= "b" (str.at var60 402)))
(assert (= "N" (str.at var30 223)))
(assert (= "j" (str.at var17 956)))
(assert (= "!" (str.at var34 754)))
(assert (= "h" (str.at var15 944)))
(assert (= "n" (str.at var16 795)))
(assert (= "." (str.at var38 47)))
(assert (= "\\" (str.at var21 20)))
(assert (= "R" (str.at var16 385)))
(assert (= "&" (str.at var26 813)))
(assert (= "!" (str.at var42 783)))
(assert (= "8" (str.at var26 22)))
(assert (= "D" (str.at var58 0)))
(assert (= "F" (str.at var48 900)))
(assert (= "j" (str.at var60 289)))
(assert (= "C" (str.at var20 133)))
(assert (= "K" (str.at var17 215)))
(assert (= "k" (str.at var8 15)))
(assert (= "x" (str.at var28 369)))
(assert (= "o" (str.at var17 383)))
(assert (= "7" (str.at var48 603)))
(assert (= "i" (str.at var38 381)))
(assert (= "g" (str.at var1 432)))
(assert (= "j" (str.at var56 92)))
(assert (= "-" (str.at var22 297)))
(assert (= "}" (str.at var4 963)))
(assert (= "F" (str.at var59 773)))
(assert (= "e" (str.at var60 765)))
(assert (= "-" (str.at var44 916)))
(assert (= "3" (str.at var4 672)))
(assert (= "n" (str.at var13 457)))
(assert (= "@" (str.at var41 398)))
(assert (= "B" (str.at var60 274)))
(assert (= "x" (str.at var51 273)))
(assert (= "U" (str.at var35 952)))
(assert (= "L" (str.at var19 816)))
(assert (= "(" (str.at var39 882)))
(assert (= "}" (str.at var8 282)))
(assert (= "V" (str.at var57 33)))
(assert (= "L" (str.at var27 274)))
(assert (= "O" (str.at var0 130)))
(assert (= "j" (str.at var54 12)))
(assert (= "l" (str.at var39 814)))
(assert (= "E" (str.at var46 320)))
(assert (= "S" (str.at var56 829)))
(assert (= "E" (str.at var50 191)))
(assert (= "q" (str.at var39 871)))
(assert (= "n" (str.at var22 26)))
(assert (= "<" (str.at var43 467)))
(assert (= "\\" (str.at var56 547)))
(assert (= "@" (str.at var36 810)))
(assert (= "O" (str.at var56 423)))
(assert (= "<" (str.at var44 54)))
(assert (= "9" (str.at var44 593)))
(assert (= "q" (str.at var44 930)))
(assert (= "T" (str.at var29 727)))
(assert (= "T" (str.at var46 711)))
(assert (= "s" (str.at var6 127)))
(assert (= "y" (str.at var14 700)))
(assert (= "V" (str.at var46 953)))
(assert (= "W" (str.at var0 44)))
(assert (= "U" (str.at var41 864)))
(assert (= "x" (str.at var15 840)))
(assert (= "e" (str.at var6 1000)))
(assert (= "C" (str.at var31 732)))
(assert (= "g" (str.at var41 500)))
(assert (= "C" (str.at var18 554)))
(assert (= "Q" (str.at var39 116)))
(assert (= "=" (str.at var17 41)))
(assert (= "." (str.at var60 350)))
(assert (= "M" (str.at var25 296)))
(assert (= "|" (str.at var36 761)))
(assert (= "#" (str.at var54 715)))
(assert (= "F" (str.at var49 889)))
(assert (= "," (str.at var6 382)))
(assert (= "C" (str.at var16 901)))
(assert (= "8" (str.at var28 546)))
(assert (= "[" (str.at var53 860)))
(assert (= "L" (str.at var8 191)))
(assert (= "/" (str.at var29 307)))
(assert (= "^" (str.at var17 762)))
(assert (= "q" (str.at var38 541)))
(assert (= "\\" (str.at var46 382)))
(assert (= "," (str.at var53 57)))
(assert (= "v" (str.at var45 464)))
(assert (= "S" (str.at var3 456)))
(assert (= "[" (str.at var1 549)))
(assert (= "9" (str.at var58 819)))
(assert (= "p" (str.at var43 738)))
(assert (= "2" (str.at var28 686)))
(assert (= "G" (str.at var1 341)))
(assert (= "C" (str.at var27 817)))
(assert (= "4" (str.at var36 651)))
(assert (= "@" (str.at var7 307)))
(assert (= "m" (str.at var23 909)))
(assert (= "]" (str.at var33 420)))
(assert (= "@" (str.at var6 887)))
(assert (= "l" (str.at var25 292)))
(assert (= "T" (str.at var51 764)))
(assert (= "H" (str.at var18 208)))
(assert (= "2" (str.at var11 118)))
(assert (= "K" (str.at var5 653)))
(assert (= """" (str.at var48 636)))
(assert (= "4" (str.at var46 323)))
(assert (= "l" (str.at var0 826)))
(assert (= "<" (str.at var30 519)))
(assert (= "$" (str.at var28 665)))
(assert (= "3" (str.at var48 829)))
(assert (= "F" (str.at var36 112)))
(assert (= "u" (str.at var21 517)))
(assert (= "[" (str.at var19 41)))
(assert (= "7" (str.at var35 377)))
(assert (= "?" (str.at var50 127)))
(assert (= "o" (str.at var44 210)))
(assert (= "\\" (str.at var28 767)))
(assert (= "-" (str.at var32 621)))
(assert (= "X" (str.at var0 974)))
(assert (= "s" (str.at var36 184)))
(assert (= "@" (str.at var21 295)))
(assert (= "x" (str.at var2 89)))
(assert (= "_" (str.at var47 158)))
(assert (= "]" (str.at var43 693)))
(assert (= "'" (str.at var46 890)))
(assert (= "2" (str.at var17 967)))
(assert (= "p" (str.at var5 970)))
(assert (= "x" (str.at var52 920)))
(assert (= "7" (str.at var36 256)))
(assert (= "=" (str.at var14 767)))
(assert (= "u" (str.at var21 926)))
(assert (= "i" (str.at var16 283)))
(assert (= ")" (str.at var43 868)))
(assert (= "1" (str.at var36 275)))
(assert (= "{" (str.at var36 493)))
(assert (= "b" (str.at var9 643)))
(assert (= ":" (str.at var16 452)))
(assert (= "l" (str.at var47 32)))
(assert (= "x" (str.at var13 456)))
(assert (= "u" (str.at var58 877)))
(assert (= "{" (str.at var6 703)))
(assert (= "/" (str.at var38 43)))
(assert (= "5" (str.at var30 324)))
(assert (= "-" (str.at var37 784)))
(assert (= "c" (str.at var40 125)))
(assert (= "m" (str.at var17 503)))
(assert (= "7" (str.at var56 797)))
(assert (= "6" (str.at var58 329)))
(assert (= "(" (str.at var8 205)))
(assert (= "#" (str.at var18 633)))
(assert (= "?" (str.at var20 472)))
(assert (= "L" (str.at var15 38)))
(assert (= "6" (str.at var46 462)))
(assert (= "J" (str.at var34 733)))
(assert (= "Z" (str.at var19 418)))
(assert (= """" (str.at var55 582)))
(assert (= "i" (str.at var18 334)))
(assert (= "W" (str.at var3 721)))
(assert (= "Q" (str.at var9 903)))
(assert (= "@" (str.at var40 417)))
(assert (= "|" (str.at var14 539)))
(assert (= "O" (str.at var40 994)))
(assert (= "&" (str.at var31 326)))
(assert (= "6" (str.at var51 188)))
(assert (= "B" (str.at var40 425)))
(assert (= "#" (str.at var16 540)))
(assert (= "j" (str.at var48 561)))
(assert (= "8" (str.at var36 293)))
(assert (= "I" (str.at var54 731)))
(assert (= "z" (str.at var29 667)))
(assert (= "g" (str.at var18 764)))
(assert (= "1" (str.at var6 8)))
(assert (= "h" (str.at var41 488)))
(assert (= "z" (str.at var35 977)))
(assert (= "?" (str.at var3 509)))
(assert (= "t" (str.at var27 348)))
(assert (= "j" (str.at var33 148)))
(assert (= "n" (str.at var4 606)))
(assert (= "a" (str.at var37 581)))
(assert (= "T" (str.at var8 830)))
(assert (= "[" (str.at var9 719)))
(assert (= "i" (str.at var24 793)))
(assert (= "s" (str.at var56 355)))
(assert (= "q" (str.at var2 513)))
(assert (= "F" (str.at var34 590)))
(assert (= "N" (str.at var52 601)))
(assert (= "f" (str.at var25 558)))
(assert (= "Y" (str.at var35 894)))
(assert (= "^" (str.at var11 856)))
(assert (= "l" (str.at var29 200)))
(assert (= "~" (str.at var2 609)))
(assert (= ">" (str.at var14 121)))
(assert (= "d" (str.at var29 148)))
(assert (= "k" (str.at var35 223)))
(assert (= "Q" (str.at var51 550)))
(assert (= "l" (str.at var55 439)))
(assert (= "K" (str.at var54 459)))
(assert (= "t" (str.at var5 457)))
(assert (= "P" (str.at var55 368)))
(assert (= "P" (str.at var38 722)))
(assert (= "E" (str.at var10 300)))
(assert (= "@" (str.at var4 417)))
(assert (= "o" (str.at var55 571)))
(assert (= "y" (str.at var10 525)))
(assert (= "t" (str.at var49 725)))
(assert (= "x" (str.at var12 656)))
(assert (= "q" (str.at var51 182)))
(assert (= "*" (str.at var22 710)))
(assert (= "z" (str.at var2 901)))
(assert (= "}" (str.at var27 445)))
(assert (= "/" (str.at var26 66)))
(assert (= "z" (str.at var27 490)))
(assert (= "n" (str.at var19 408)))
(assert (= "W" (str.at var51 388)))
(assert (= "Q" (str.at var44 105)))
(assert (= "D" (str.at var6 513)))
(assert (= ":" (str.at var18 445)))
(assert (= "U" (str.at var19 297)))
(assert (= "~" (str.at var56 372)))
(assert (= "!" (str.at var40 824)))
(assert (= "t" (str.at var52 948)))
(assert (= "_" (str.at var18 126)))
(assert (= "R" (str.at var47 981)))
(assert (= "I" (str.at var56 74)))
(assert (= "Q" (str.at var1 695)))
(assert (= "I" (str.at var5 254)))
(assert (= "p" (str.at var3 281)))
(assert (= "4" (str.at var57 529)))
(assert (= "q" (str.at var12 215)))
(assert (= "k" (str.at var58 423)))
(assert (= "/" (str.at var44 683)))
(assert (= "M" (str.at var1 216)))
(assert (= "Y" (str.at var15 107)))
(assert (= "k" (str.at var34 701)))
(assert (= "1" (str.at var3 373)))
(assert (= "T" (str.at var11 393)))
(assert (= "=" (str.at var23 376)))
(assert (= "E" (str.at var35 703)))
(assert (= "A" (str.at var27 349)))
(assert (= "4" (str.at var54 21)))
(assert (= "z" (str.at var6 403)))
(assert (= "8" (str.at var43 460)))
(assert (= "L" (str.at var29 470)))
(assert (= "f" (str.at var11 637)))
(assert (= "U" (str.at var41 169)))
(assert (= "V" (str.at var16 576)))
(assert (= "K" (str.at var44 123)))
(assert (= "x" (str.at var9 725)))
(assert (= ">" (str.at var2 819)))
(assert (= "B" (str.at var42 230)))
(assert (= "^" (str.at var2 411)))
(assert (= "2" (str.at var50 696)))
(assert (= "q" (str.at var22 295)))
(assert (= ")" (str.at var46 414)))
(assert (= "," (str.at var29 572)))
(assert (= "_" (str.at var40 515)))
(assert (= "]" (str.at var59 502)))
(assert (= "$" (str.at var17 450)))
(assert (= "U" (str.at var16 95)))
(assert (= "." (str.at var16 98)))
(assert (= "F" (str.at var28 682)))
(assert (= "'" (str.at var8 105)))
(assert (= "G" (str.at var33 291)))
(assert (= "w" (str.at var50 499)))
(assert (= "K" (str.at var9 551)))
(assert (= "0" (str.at var0 101)))
(assert (= "W" (str.at var55 676)))
(assert (= "(" (str.at var21 224)))
(assert (= "w" (str.at var36 288)))
(assert (= "n" (str.at var18 158)))
(assert (= "\\" (str.at var44 985)))
(assert (= "'" (str.at var39 936)))
(assert (= "|" (str.at var51 122)))
(assert (= "X" (str.at var5 804)))
(assert (= ")" (str.at var6 9)))
(assert (= "O" (str.at var36 554)))
(assert (= "&" (str.at var7 675)))
(assert (= "(" (str.at var19 932)))
(assert (= "+" (str.at var48 122)))
(assert (= "D" (str.at var34 199)))
(assert (= "O" (str.at var36 291)))
(assert (= "k" (str.at var59 865)))
(assert (= "B" (str.at var51 792)))
(assert (= "*" (str.at var18 886)))
(assert (= "w" (str.at var24 64)))
(assert (= "Q" (str.at var29 920)))
(assert (= "B" (str.at var44 480)))
(assert (= "!" (str.at var52 952)))
(assert (= "J" (str.at var38 39)))
(assert (= "X" (str.at var52 872)))
(assert (= "J" (str.at var38 891)))
(assert (= "H" (str.at var1 999)))
(assert (= "l" (str.at var21 975)))
(assert (= "K" (str.at var51 643)))
(assert (= "D" (str.at var40 143)))
(assert (= "Y" (str.at var5 251)))
(assert (= "_" (str.at var27 409)))
(assert (= "0" (str.at var12 477)))
(assert (= "9" (str.at var10 813)))
(assert (= "C" (str.at var44 574)))
(assert (= "8" (str.at var54 879)))
(assert (= "S" (str.at var25 916)))
(assert (= "L" (str.at var24 125)))
(assert (= ":" (str.at var24 530)))
(assert (= "'" (str.at var0 790)))
(assert (= "H" (str.at var1 148)))
(assert (= "Z" (str.at var23 273)))
(assert (= "{" (str.at var7 859)))
(assert (= "8" (str.at var23 192)))
(assert (= "k" (str.at var60 972)))
(assert (= "\\" (str.at var31 388)))
(assert (= "z" (str.at var31 207)))
(assert (= "v" (str.at var25 124)))
(assert (= "M" (str.at var19 310)))
(assert (= "W" (str.at var19 232)))
(assert (= "N" (str.at var5 983)))
(assert (= "p" (str.at var60 745)))
(assert (= "+" (str.at var29 370)))
(assert (= "b" (str.at var48 622)))
(assert (= "@" (str.at var13 271)))
(assert (= "z" (str.at var30 540)))
(assert (= "^" (str.at var47 205)))
(assert (= "n" (str.at var53 788)))
(assert (= "W" (str.at var1 42)))
(assert (= "B" (str.at var50 767)))
(assert (= "H" (str.at var40 334)))
(assert (= "<" (str.at var38 594)))
(assert (= "," (str.at var37 810)))
(assert (= "p" (str.at var58 437)))
(assert (= "C" (str.at var26 873)))
(assert (= "^" (str.at var31 791)))
(assert (= "i" (str.at var0 639)))
(assert (= "n" (str.at var3 84)))
(assert (= "%" (str.at var14 857)))
(assert (= "(" (str.at var2 737)))
(assert (= "*" (str.at var45 733)))
(assert (= "#" (str.at var5 521)))
(assert (= "c" (str.at var22 896)))
(assert (= "@" (str.at var60 242)))
(assert (= "r" (str.at var0 527)))
(assert (= "7" (str.at var24 907)))
(assert (= "g" (str.at var21 385)))
(assert (= "%" (str.at var46 672)))
(assert (= "Z" (str.at var15 340)))
(assert (= "}" (str.at var45 983)))
(assert (= "+" (str.at var58 875)))
(assert (= "W" (str.at var9 577)))
(assert (= "n" (str.at var34 527)))
(assert (= "m" (str.at var2 383)))
(assert (= "&" (str.at var17 827)))
(assert (= "m" (str.at var8 75)))
(assert (= "H" (str.at var48 435)))
(assert (= "Y" (str.at var54 527)))
(assert (= "u" (str.at var7 886)))
(assert (= "T" (str.at var9 158)))
(assert (= "P" (str.at var42 94)))
(assert (= "<" (str.at var9 480)))
(assert (= "i" (str.at var52 665)))
(assert (= "8" (str.at var14 843)))
(assert (= "Y" (str.at var21 110)))
(assert (= "Y" (str.at var16 597)))
(assert (= "V" (str.at var8 121)))
(assert (= "7" (str.at var45 844)))
(assert (= "M" (str.at var35 306)))
(assert (= "K" (str.at var51 179)))
(assert (= ")" (str.at var39 931)))
(assert (= "Y" (str.at var44 91)))
(assert (= "`" (str.at var26 21)))
(assert (= "[" (str.at var23 658)))
(assert (= "m" (str.at var47 207)))
(assert (= "\\" (str.at var30 46)))
(assert (= "9" (str.at var29 432)))
(assert (= "c" (str.at var15 695)))
(assert (= "'" (str.at var48 356)))
(assert (= "<" (str.at var23 110)))
(assert (= ";" (str.at var34 354)))
(assert (= "1" (str.at var26 411)))
(assert (= "4" (str.at var6 850)))
(assert (= "p" (str.at var53 336)))
(assert (= "e" (str.at var0 709)))
(assert (= "i" (str.at var41 538)))
(assert (= "Q" (str.at var13 443)))
(assert (= "z" (str.at var16 483)))
(assert (= "y" (str.at var9 82)))
(assert (= ":" (str.at var35 907)))
(assert (= "J" (str.at var11 351)))
(assert (= "`" (str.at var21 91)))
(assert (= "X" (str.at var19 457)))
(assert (= "q" (str.at var32 730)))
(assert (= "e" (str.at var59 728)))
(assert (= "l" (str.at var58 116)))
(assert (= "[" (str.at var47 176)))
(assert (= "k" (str.at var3 766)))
(assert (= "~" (str.at var10 832)))
(assert (= "%" (str.at var8 680)))
(assert (= "o" (str.at var42 490)))
(assert (= "+" (str.at var20 882)))
(assert (= "I" (str.at var58 249)))
(assert (= "t" (str.at var15 495)))
(assert (= "O" (str.at var33 701)))
(assert (= "=" (str.at var26 102)))
(assert (= "8" (str.at var41 122)))
(assert (= "x" (str.at var55 767)))
(assert (= "]" (str.at var23 855)))
(assert (= "A" (str.at var8 313)))
(assert (= "v" (str.at var26 53)))
(assert (= "(" (str.at var12 786)))
(assert (= "s" (str.at var6 76)))
(assert (= "Y" (str.at var12 534)))
(assert (= "%" (str.at var43 639)))
(assert (= "A" (str.at var14 186)))
(assert (= "}" (str.at var46 441)))
(assert (= "P" (str.at var37 133)))
(assert (= ":" (str.at var7 93)))
(assert (= "t" (str.at var6 514)))
(assert (= "i" (str.at var41 174)))
(assert (= "v" (str.at var49 451)))
(assert (= "r" (str.at var29 986)))
(assert (= "c" (str.at var42 111)))
(assert (= "\\" (str.at var15 833)))
(assert (= "/" (str.at var16 288)))
(assert (= "M" (str.at var36 455)))
(assert (= "}" (str.at var6 918)))
(assert (= "J" (str.at var13 682)))
(assert (= "Z" (str.at var28 215)))
(assert (= "W" (str.at var30 648)))
(assert (= "^" (str.at var27 377)))
(assert (= "5" (str.at var1 210)))
(assert (= "^" (str.at var39 71)))
(assert (= "V" (str.at var46 50)))
(assert (= "z" (str.at var23 225)))
(assert (= "I" (str.at var9 118)))
(assert (= "L" (str.at var49 713)))
(assert (= "3" (str.at var0 27)))
(assert (= "T" (str.at var43 75)))
(assert (= "_" (str.at var34 899)))
(assert (= "C" (str.at var17 756)))
(assert (= "k" (str.at var8 783)))
(assert (= "%" (str.at var2 390)))
(assert (= "P" (str.at var2 765)))
(assert (= "s" (str.at var5 985)))
(assert (= "d" (str.at var53 2)))
(assert (= "|" (str.at var12 999)))
(assert (= "-" (str.at var20 595)))
(assert (= "H" (str.at var31 351)))
(assert (= "b" (str.at var50 975)))
(assert (= "." (str.at var2 435)))
(assert (= "U" (str.at var48 737)))
(assert (= "1" (str.at var5 363)))
(assert (= "\\" (str.at var6 866)))
(assert (= "W" (str.at var24 600)))
(assert (= "q" (str.at var2 273)))
(assert (= "`" (str.at var53 623)))
(assert (= """" (str.at var17 487)))
(assert (= "0" (str.at var57 165)))
(assert (= "U" (str.at var21 535)))
(assert (= "s" (str.at var29 530)))
(assert (= "N" (str.at var37 834)))
(assert (= "," (str.at var2 693)))
(assert (= "g" (str.at var5 388)))
(assert (= "-" (str.at var20 71)))
(assert (= "s" (str.at var36 970)))
(assert (= "!" (str.at var34 249)))
(assert (= ">" (str.at var48 364)))
(assert (= "h" (str.at var48 222)))
(assert (= "@" (str.at var58 748)))
(assert (= "R" (str.at var9 355)))
(assert (= "Q" (str.at var14 273)))
(assert (= "W" (str.at var59 786)))
(assert (= "R" (str.at var20 156)))
(assert (= "G" (str.at var23 872)))
(assert (= "&" (str.at var56 420)))
(assert (= "c" (str.at var29 166)))
(assert (= "^" (str.at var8 367)))
(assert (= "5" (str.at var38 262)))
(assert (= "v" (str.at var56 648)))
(assert (= "T" (str.at var9 492)))
(assert (= "@" (str.at var15 27)))
(assert (= "S" (str.at var38 955)))
(assert (= "Y" (str.at var54 420)))
(assert (= ";" (str.at var60 967)))
(assert (= "P" (str.at var4 340)))
(assert (= "U" (str.at var48 399)))
(assert (= "8" (str.at var5 498)))
(assert (= "$" (str.at var30 20)))
(assert (= "^" (str.at var8 422)))
(assert (= "t" (str.at var0 163)))
(assert (= "t" (str.at var30 792)))
(assert (= "}" (str.at var54 992)))
(assert (= "Z" (str.at var11 567)))
(assert (= "v" (str.at var29 174)))
(assert (= "[" (str.at var33 158)))
(assert (= "P" (str.at var24 151)))
(assert (= "&" (str.at var55 237)))
(assert (= "4" (str.at var58 24)))
(assert (= "u" (str.at var37 817)))
(assert (= "t" (str.at var51 751)))
(assert (= "#" (str.at var46 671)))
(assert (= "6" (str.at var12 299)))
(assert (= "i" (str.at var19 399)))
(assert (= "#" (str.at var9 36)))
(assert (= "p" (str.at var20 818)))
(assert (= "e" (str.at var15 252)))
(assert (= "T" (str.at var21 432)))
(assert (= "_" (str.at var2 16)))
(assert (= "_" (str.at var50 601)))
(assert (= "o" (str.at var57 143)))
(assert (= "c" (str.at var32 218)))
(assert (= "+" (str.at var10 749)))
(assert (= "U" (str.at var40 595)))
(assert (= "k" (str.at var41 814)))
(assert (= """" (str.at var41 627)))
(assert (= "&" (str.at var56 333)))
(assert (= "'" (str.at var30 621)))
(assert (= "Q" (str.at var24 663)))
(assert (= "W" (str.at var32 49)))
(assert (= "o" (str.at var1 495)))
(assert (= "<" (str.at var2 900)))
(assert (= "#" (str.at var19 820)))
(assert (= "v" (str.at var49 11)))
(assert (= "k" (str.at var57 162)))
(assert (= "4" (str.at var23 887)))
(assert (= "p" (str.at var38 179)))
(assert (= "Q" (str.at var31 817)))
(assert (= "#" (str.at var37 642)))
(assert (= "u" (str.at var47 143)))
(assert (= "," (str.at var23 164)))
(assert (= "|" (str.at var38 522)))
(assert (= "z" (str.at var22 452)))
(assert (= ")" (str.at var12 334)))
(assert (= "Q" (str.at var24 493)))
(assert (= "Q" (str.at var50 314)))
(assert (= "I" (str.at var52 401)))
(assert (= "a" (str.at var40 396)))
(assert (= "." (str.at var50 42)))
(assert (= "f" (str.at var3 142)))
(assert (= "j" (str.at var23 332)))
(assert (= "_" (str.at var28 91)))
(assert (= "a" (str.at var10 675)))
(assert (= "d" (str.at var48 215)))
(assert (= "@" (str.at var35 546)))
(assert (= "g" (str.at var36 1000)))
(assert (= "+" (str.at var1 150)))
(assert (= "+" (str.at var48 452)))
(assert (= "E" (str.at var38 409)))
(assert (= "N" (str.at var26 636)))
(assert (= "8" (str.at var40 745)))
(assert (= "I" (str.at var46 876)))
(assert (= "8" (str.at var27 266)))
(assert (= "h" (str.at var40 88)))
(assert (= "'" (str.at var46 921)))
(assert (= ";" (str.at var23 554)))
(assert (= "o" (str.at var6 367)))
(assert (= "k" (str.at var13 79)))
(assert (= "q" (str.at var35 564)))
(assert (= "'" (str.at var9 567)))
(assert (= "O" (str.at var17 590)))
(assert (= "<" (str.at var24 281)))
(assert (= "&" (str.at var11 268)))
(assert (= "i" (str.at var50 377)))
(assert (= "@" (str.at var10 848)))
(assert (= "b" (str.at var52 987)))
(assert (= "9" (str.at var33 631)))
(assert (= "P" (str.at var13 295)))
(assert (= "i" (str.at var35 744)))
(assert (= """" (str.at var27 736)))
(assert (= "b" (str.at var13 930)))
(assert (= "E" (str.at var1 773)))
(assert (= "6" (str.at var54 893)))
(assert (= "E" (str.at var12 510)))
(assert (= "i" (str.at var34 42)))
(assert (= "=" (str.at var38 137)))
(assert (= "w" (str.at var8 816)))
(assert (= "Q" (str.at var1 28)))
(assert (= "b" (str.at var56 771)))
(assert (= "~" (str.at var48 80)))
(assert (= "L" (str.at var3 590)))
(assert (= "2" (str.at var38 886)))
(assert (= "Z" (str.at var22 255)))
(assert (= "C" (str.at var53 309)))
(assert (= "T" (str.at var17 471)))
(assert (= "f" (str.at var35 266)))
(assert (= "8" (str.at var4 259)))
(assert (= ":" (str.at var11 347)))
(assert (= "'" (str.at var51 523)))
(assert (= "j" (str.at var20 327)))
(assert (= "z" (str.at var56 232)))
(assert (= "}" (str.at var59 759)))
(assert (= "_" (str.at var55 610)))
(assert (= "B" (str.at var31 18)))
(assert (= "6" (str.at var10 994)))
(assert (= "z" (str.at var8 461)))
(assert (= "i" (str.at var45 567)))
(assert (= "s" (str.at var58 438)))
(assert (= "t" (str.at var26 82)))
(assert (= "`" (str.at var28 416)))
(assert (= "H" (str.at var25 651)))
(assert (= "<" (str.at var40 797)))
(assert (= "4" (str.at var2 525)))
(assert (= "Y" (str.at var5 937)))
(assert (= "F" (str.at var43 684)))
(assert (= "^" (str.at var18 548)))
(assert (= ";" (str.at var56 483)))
(assert (= "=" (str.at var39 872)))
(assert (= "j" (str.at var54 777)))
(assert (= "o" (str.at var48 451)))
(assert (= "^" (str.at var26 691)))
(assert (= """" (str.at var13 696)))
(assert (= "%" (str.at var18 801)))
(assert (= "B" (str.at var57 642)))
(assert (= "1" (str.at var53 191)))
(assert (= "!" (str.at var4 187)))
(assert (= "|" (str.at var48 814)))
(assert (= "," (str.at var34 682)))
(assert (= "Q" (str.at var31 68)))
(assert (= "0" (str.at var24 57)))
(assert (= "S" (str.at var29 466)))
(assert (= "~" (str.at var50 326)))
(assert (= "e" (str.at var55 756)))
(assert (= "|" (str.at var55 896)))
(assert (= "#" (str.at var22 171)))
(assert (= "'" (str.at var51 517)))
(assert (= "g" (str.at var32 298)))
(assert (= ")" (str.at var32 962)))
(assert (= "m" (str.at var41 44)))
(assert (= "z" (str.at var43 679)))
(assert (= "h" (str.at var18 774)))
(assert (= "B" (str.at var19 658)))
(assert (= "V" (str.at var8 718)))
(assert (= "h" (str.at var4 808)))
(assert (= "Q" (str.at var21 824)))
(assert (= "|" (str.at var14 884)))
(assert (= "E" (str.at var5 590)))
(assert (= "H" (str.at var6 429)))
(assert (= "c" (str.at var38 543)))
(assert (= "}" (str.at var34 608)))
(assert (= "n" (str.at var23 280)))
(assert (= "/" (str.at var29 657)))
(assert (= "*" (str.at var2 392)))
(assert (= "2" (str.at var26 0)))
(assert (= "{" (str.at var60 201)))
(assert (= "7" (str.at var50 391)))
(assert (= ")" (str.at var6 75)))
(assert (= "P" (str.at var41 321)))
(assert (= "T" (str.at var55 244)))
(assert (= "x" (str.at var3 864)))
(assert (= "W" (str.at var23 996)))
(assert (= "X" (str.at var10 89)))
(assert (= "H" (str.at var55 386)))
(assert (= "h" (str.at var43 704)))
(assert (= "r" (str.at var32 678)))
(assert (= "\\" (str.at var8 928)))
(assert (= "l" (str.at var41 300)))
(assert (= "q" (str.at var57 527)))
(assert (= "#" (str.at var15 900)))
(assert (= "f" (str.at var32 352)))
(assert (= "O" (str.at var27 33)))
(assert (= "B" (str.at var26 609)))
(assert (= ":" (str.at var46 160)))
(assert (= "I" (str.at var28 883)))
(assert (= "!" (str.at var57 903)))
(assert (= "J" (str.at var38 775)))
(assert (= "y" (str.at var14 786)))
(assert (= ";" (str.at var30 87)))
(assert (= "5" (str.at var49 592)))
(assert (= "5" (str.at var53 633)))
(assert (= "q" (str.at var53 985)))
(assert (= "C" (str.at var25 629)))
(assert (= "i" (str.at var19 581)))
(assert (= "i" (str.at var58 38)))
(assert (= "r" (str.at var1 850)))
(assert (= "k" (str.at var42 486)))
(assert (= "/" (str.at var5 579)))
(assert (= "}" (str.at var10 867)))
(check-sat)